benchmarks_vrp/CMT12/fixed_c/CMT12_8.vrp
NAME: CMT12_8
TYPE: CVRP
COMMENT: 819.56 - Cluster Nr.8
DIMENSION: 9
CAPACITY: 200
EDGE_WEIGHT_TYPE: EUC_2D
NODE_COORD_TYPE: TWOD_COORDS
NODE_COORD_SECTION: 
9 35 5
3 44 5
5 40 50
7 38 5
8 42 10
1 42 15
6 40 5
2 38 15
4 40 15
DEPOT_SECTION: 
5
-1
DEMAND_SECTION: 
3 20
5 0
1 10
6 30
4 40
2 10
7 30
9 20
8 40
EOF
