benchmarks_vrp/CMT12/fixed_c/CMT12_8.tour
NAME: CMT12_8 solution
TYPE: TOUR
TOUR_SECTION:
5 2 9 7 6 3 8 1 4 -1
-1
EOF